p edge 200 3988
e 17 1
e 19 1
e 24 1
e 27 1
e 28 1
e 30 1
e 40 1
e 42 1
e 43 1
e 46 1
e 47 1
e 51 1
e 58 1
e 61 1
e 62 1
e 65 1
e 73 1
e 76 1
e 80 1
e 81 1
e 85 1
e 97 1
e 100 1
e 101 1
e 114 1
e 115 1
e 134 1
e 140 1
e 146 1
e 148 1
e 149 1
e 157 1
e 159 1
e 175 1
e 177 1
e 179 1
e 180 1
e 181 1
e 183 1
e 189 1
e 195 1
e 196 1
e 7 2
e 10 2
e 11 2
e 21 2
e 25 2
e 26 2
e 29 2
e 30 2
e 34 2
e 37 2
e 44 2
e 45 2
e 60 2
e 61 2
e 68 2
e 72 2
e 75 2
e 76 2
e 77 2
e 79 2
e 93 2
e 106 2
e 114 2
e 115 2
e 119 2
e 136 2
e 140 2
e 147 2
e 156 2
e 161 2
e 165 2
e 171 2
e 172 2
e 173 2
e 176 2
e 181 2
e 182 2
e 188 2
e 193 2
e 199 2
e 4 3
e 13 3
e 14 3
e 16 3
e 27 3
e 38 3
e 49 3
e 50 3
e 54 3
e 57 3
e 58 3
e 65 3
e 70 3
e 71 3
e 79 3
e 84 3
e 88 3
e 93 3
e 101 3
e 102 3
e 114 3
e 125 3
e 127 3
e 128 3
e 132 3
e 134 3
e 135 3
e 146 3
e 150 3
e 155 3
e 157 3
e 162 3
e 165 3
e 167 3
e 175 3
e 185 3
e 188 3
e 189 3
e 192 3
e 8 4
e 14 4
e 18 4
e 19 4
e 25 4
e 35 4
e 40 4
e 43 4
e 49 4
e 51 4
e 52 4
e 58 4
e 59 4
e 69 4
e 72 4
e 83 4
e 87 4
e 89 4
e 101 4
e 111 4
e 116 4
e 117 4
e 120 4
e 129 4
e 142 4
e 143 4
e 144 4
e 146 4
e 147 4
e 151 4
e 155 4
e 162 4
e 164 4
e 165 4
e 176 4
e 177 4
e 179 4
e 182 4
e 183 4
e 186 4
e 190 4
e 191 4
e 200 4
e 9 5
e 11 5
e 16 5
e 18 5
e 19 5
e 25 5
e 26 5
e 31 5
e 35 5
e 36 5
e 43 5
e 44 5
e 45 5
e 46 5
e 47 5
e 55 5
e 68 5
e 94 5
e 100 5
e 106 5
e 110 5
e 112 5
e 115 5
e 124 5
e 131 5
e 142 5
e 146 5
e 148 5
e 150 5
e 151 5
e 165 5
e 168 5
e 175 5
e 178 5
e 183 5
e 184 5
e 200 5
e 12 6
e 22 6
e 23 6
e 24 6
e 26 6
e 27 6
e 31 6
e 37 6
e 39 6
e 41 6
e 45 6
e 48 6
e 49 6
e 50 6
e 51 6
e 60 6
e 64 6
e 71 6
e 77 6
e 78 6
e 80 6
e 89 6
e 104 6
e 107 6
e 112 6
e 116 6
e 121 6
e 122 6
e 123 6
e 130 6
e 131 6
e 135 6
e 136 6
e 138 6
e 140 6
e 145 6
e 146 6
e 148 6
e 152 6
e 161 6
e 164 6
e 165 6
e 174 6
e 175 6
e 180 6
e 194 6
e 197 6
e 11 7
e 18 7
e 22 7
e 32 7
e 35 7
e 38 7
e 39 7
e 51 7
e 60 7
e 63 7
e 64 7
e 70 7
e 76 7
e 80 7
e 83 7
e 94 7
e 102 7
e 104 7
e 106 7
e 107 7
e 121 7
e 123 7
e 124 7
e 130 7
e 133 7
e 143 7
e 146 7
e 162 7
e 167 7
e 170 7
e 174 7
e 176 7
e 183 7
e 185 7
e 193 7
e 11 8
e 14 8
e 16 8
e 17 8
e 21 8
e 27 8
e 33 8
e 34 8
e 42 8
e 44 8
e 45 8
e 47 8
e 50 8
e 51 8
e 61 8
e 67 8
e 70 8
e 73 8
e 74 8
e 76 8
e 77 8
e 81 8
e 82 8
e 83 8
e 85 8
e 87 8
e 91 8
e 100 8
e 117 8
e 126 8
e 133 8
e 137 8
e 140 8
e 141 8
e 144 8
e 145 8
e 153 8
e 156 8
e 157 8
e 162 8
e 167 8
e 169 8
e 170 8
e 173 8
e 178 8
e 183 8
e 185 8
e 189 8
e 190 8
e 193 8
e 199 8
e 200 8
e 25 9
e 26 9
e 28 9
e 38 9
e 46 9
e 50 9
e 53 9
e 54 9
e 56 9
e 59 9
e 60 9
e 63 9
e 66 9
e 87 9
e 89 9
e 91 9
e 93 9
e 94 9
e 113 9
e 114 9
e 120 9
e 127 9
e 130 9
e 134 9
e 154 9
e 156 9
e 158 9
e 161 9
e 164 9
e 167 9
e 171 9
e 176 9
e 185 9
e 188 9
e 192 9
e 197 9
e 14 10
e 15 10
e 17 10
e 24 10
e 25 10
e 41 10
e 52 10
e 53 10
e 56 10
e 58 10
e 59 10
e 68 10
e 69 10
e 81 10
e 83 10
e 84 10
e 88 10
e 94 10
e 97 10
e 103 10
e 105 10
e 107 10
e 115 10
e 116 10
e 123 10
e 126 10
e 127 10
e 128 10
e 130 10
e 137 10
e 140 10
e 149 10
e 163 10
e 167 10
e 169 10
e 174 10
e 177 10
e 194 10
e 198 10
e 12 11
e 14 11
e 15 11
e 16 11
e 22 11
e 24 11
e 30 11
e 32 11
e 33 11
e 40 11
e 48 11
e 52 11
e 58 11
e 67 11
e 70 11
e 72 11
e 79 11
e 84 11
e 88 11
e 89 11
e 104 11
e 106 11
e 111 11
e 113 11
e 127 11
e 130 11
e 131 11
e 139 11
e 142 11
e 166 11
e 169 11
e 175 11
e 176 11
e 188 11
e 195 11
e 196 11
e 198 11
e 199 11
e 200 11
e 16 12
e 22 12
e 23 12
e 32 12
e 33 12
e 36 12
e 44 12
e 51 12
e 54 12
e 63 12
e 65 12
e 70 12
e 79 12
e 82 12
e 83 12
e 92 12
e 99 12
e 102 12
e 112 12
e 115 12
e 131 12
e 132 12
e 136 12
e 139 12
e 143 12
e 155 12
e 161 12
e 163 12
e 165 12
e 167 12
e 170 12
e 177 12
e 178 12
e 181 12
e 188 12
e 189 12
e 190 12
e 191 12
e 32 13
e 33 13
e 49 13
e 53 13
e 56 13
e 57 13
e 59 13
e 60 13
e 67 13
e 71 13
e 72 13
e 77 13
e 82 13
e 84 13
e 85 13
e 92 13
e 102 13
e 106 13
e 107 13
e 113 13
e 115 13
e 116 13
e 120 13
e 122 13
e 123 13
e 125 13
e 127 13
e 128 13
e 129 13
e 130 13
e 133 13
e 135 13
e 137 13
e 138 13
e 141 13
e 142 13
e 144 13
e 149 13
e 150 13
e 158 13
e 159 13
e 166 13
e 177 13
e 184 13
e 189 13
e 194 13
e 197 13
e 198 13
e 25 14
e 26 14
e 31 14
e 33 14
e 34 14
e 40 14
e 49 14
e 50 14
e 52 14
e 56 14
e 60 14
e 62 14
e 68 14
e 70 14
e 72 14
e 74 14
e 88 14
e 93 14
e 106 14
e 115 14
e 118 14
e 124 14
e 131 14
e 133 14
e 138 14
e 143 14
e 147 14
e 153 14
e 160 14
e 162 14
e 166 14
e 171 14
e 179 14
e 188 14
e 190 14
e 194 14
e 199 14
e 21 15
e 27 15
e 40 15
e 41 15
e 45 15
e 46 15
e 48 15
e 50 15
e 64 15
e 83 15
e 85 15
e 87 15
e 88 15
e 99 15
e 104 15
e 108 15
e 111 15
e 117 15
e 122 15
e 131 15
e 133 15
e 150 15
e 153 15
e 157 15
e 168 15
e 173 15
e 197 15
e 17 16
e 24 16
e 26 16
e 39 16
e 60 16
e 68 16
e 70 16
e 71 16
e 80 16
e 90 16
e 96 16
e 101 16
e 107 16
e 108 16
e 123 16
e 124 16
e 125 16
e 126 16
e 129 16
e 134 16
e 137 16
e 141 16
e 150 16
e 156 16
e 179 16
e 185 16
e 189 16
e 195 16
e 196 16
e 198 16
e 18 17
e 19 17
e 20 17
e 25 17
e 26 17
e 35 17
e 40 17
e 41 17
e 44 17
e 54 17
e 64 17
e 65 17
e 71 17
e 76 17
e 77 17
e 80 17
e 84 17
e 85 17
e 86 17
e 92 17
e 112 17
e 114 17
e 126 17
e 128 17
e 129 17
e 131 17
e 133 17
e 141 17
e 154 17
e 164 17
e 169 17
e 172 17
e 173 17
e 175 17
e 177 17
e 178 17
e 180 17
e 181 17
e 182 17
e 185 17
e 190 17
e 192 17
e 195 17
e 196 17
e 23 18
e 39 18
e 43 18
e 44 18
e 46 18
e 52 18
e 53 18
e 56 18
e 57 18
e 64 18
e 67 18
e 76 18
e 77 18
e 80 18
e 83 18
e 84 18
e 90 18
e 92 18
e 99 18
e 101 18
e 116 18
e 118 18
e 119 18
e 121 18
e 123 18
e 136 18
e 150 18
e 160 18
e 188 18
e 194 18
e 195 18
e 196 18
e 200 18
e 23 19
e 27 19
e 35 19
e 36 19
e 42 19
e 44 19
e 56 19
e 57 19
e 62 19
e 71 19
e 76 19
e 77 19
e 84 19
e 89 19
e 90 19
e 93 19
e 95 19
e 96 19
e 100 19
e 106 19
e 108 19
e 111 19
e 112 19
e 117 19
e 120 19
e 130 19
e 143 19
e 147 19
e 152 19
e 156 19
e 157 19
e 185 19
e 189 19
e 191 19
e 198 19
e 21 20
e 23 20
e 27 20
e 28 20
e 32 20
e 41 20
e 47 20
e 49 20
e 52 20
e 54 20
e 59 20
e 67 20
e 84 20
e 94 20
e 104 20
e 105 20
e 110 20
e 125 20
e 134 20
e 140 20
e 146 20
e 148 20
e 159 20
e 170 20
e 171 20
e 172 20
e 173 20
e 191 20
e 197 20
e 30 21
e 48 21
e 49 21
e 54 21
e 56 21
e 59 21
e 60 21
e 64 21
e 81 21
e 90 21
e 94 21
e 97 21
e 99 21
e 119 21
e 125 21
e 126 21
e 128 21
e 129 21
e 130 21
e 131 21
e 134 21
e 136 21
e 148 21
e 161 21
e 169 21
e 171 21
e 173 21
e 174 21
e 177 21
e 181 21
e 192 21
e 194 21
e 196 21
e 24 22
e 27 22
e 29 22
e 30 22
e 37 22
e 41 22
e 65 22
e 68 22
e 69 22
e 71 22
e 75 22
e 78 22
e 79 22
e 80 22
e 84 22
e 89 22
e 91 22
e 102 22
e 104 22
e 108 22
e 110 22
e 111 22
e 113 22
e 114 22
e 123 22
e 129 22
e 134 22
e 144 22
e 146 22
e 148 22
e 152 22
e 156 22
e 158 22
e 159 22
e 162 22
e 163 22
e 164 22
e 165 22
e 166 22
e 168 22
e 170 22
e 171 22
e 175 22
e 176 22
e 182 22
e 187 22
e 195 22
e 24 23
e 34 23
e 36 23
e 37 23
e 41 23
e 42 23
e 43 23
e 51 23
e 54 23
e 57 23
e 58 23
e 60 23
e 74 23
e 83 23
e 101 23
e 103 23
e 108 23
e 109 23
e 113 23
e 114 23
e 123 23
e 129 23
e 132 23
e 133 23
e 139 23
e 142 23
e 157 23
e 161 23
e 163 23
e 184 23
e 191 23
e 194 23
e 196 23
e 25 24
e 30 24
e 35 24
e 36 24
e 44 24
e 45 24
e 49 24
e 51 24
e 55 24
e 60 24
e 63 24
e 64 24
e 82 24
e 83 24
e 89 24
e 101 24
e 111 24
e 113 24
e 116 24
e 117 24
e 120 24
e 122 24
e 133 24
e 137 24
e 138 24
e 139 24
e 142 24
e 144 24
e 151 24
e 152 24
e 154 24
e 157 24
e 158 24
e 163 24
e 167 24
e 170 24
e 175 24
e 183 24
e 192 24
e 195 24
e 29 25
e 43 25
e 48 25
e 53 25
e 58 25
e 59 25
e 69 25
e 71 25
e 79 25
e 91 25
e 95 25
e 97 25
e 100 25
e 110 25
e 112 25
e 115 25
e 126 25
e 127 25
e 131 25
e 134 25
e 139 25
e 151 25
e 154 25
e 156 25
e 159 25
e 160 25
e 163 25
e 173 25
e 175 25
e 178 25
e 189 25
e 200 25
e 30 26
e 33 26
e 40 26
e 41 26
e 46 26
e 50 26
e 57 26
e 65 26
e 71 26
e 78 26
e 92 26
e 93 26
e 94 26
e 97 26
e 103 26
e 109 26
e 110 26
e 122 26
e 130 26
e 132 26
e 134 26
e 139 26
e 143 26
e 153 26
e 166 26
e 167 26
e 168 26
e 173 26
e 178 26
e 191 26
e 195 26
e 199 26
e 31 27
e 35 27
e 41 27
e 42 27
e 53 27
e 62 27
e 63 27
e 66 27
e 67 27
e 70 27
e 75 27
e 80 27
e 84 27
e 85 27
e 94 27
e 101 27
e 110 27
e 111 27
e 117 27
e 149 27
e 154 27
e 157 27
e 160 27
e 165 27
e 170 27
e 179 27
e 187 27
e 190 27
e 192 27
e 193 27
e 34 28
e 36 28
e 49 28
e 52 28
e 59 28
e 60 28
e 68 28
e 70 28
e 71 28
e 78 28
e 81 28
e 83 28
e 84 28
e 92 28
e 96 28
e 99 28
e 108 28
e 112 28
e 116 28
e 123 28
e 130 28
e 136 28
e 137 28
e 138 28
e 146 28
e 147 28
e 148 28
e 168 28
e 169 28
e 173 28
e 174 28
e 175 28
e 176 28
e 180 28
e 183 28
e 184 28
e 198 28
e 34 29
e 40 29
e 43 29
e 46 29
e 53 29
e 56 29
e 57 29
e 59 29
e 65 29
e 83 29
e 84 29
e 91 29
e 92 29
e 100 29
e 101 29
e 103 29
e 105 29
e 106 29
e 108 29
e 120 29
e 125 29
e 137 29
e 140 29
e 144 29
e 149 29
e 152 29
e 162 29
e 164 29
e 165 29
e 169 29
e 170 29
e 172 29
e 174 29
e 178 29
e 189 29
e 195 29
e 196 29
e 198 29
e 34 30
e 36 30
e 41 30
e 44 30
e 45 30
e 53 30
e 58 30
e 60 30
e 65 30
e 70 30
e 74 30
e 84 30
e 90 30
e 93 30
e 99 30
e 124 30
e 125 30
e 137 30
e 142 30
e 143 30
e 144 30
e 146 30
e 159 30
e 169 30
e 170 30
e 171 30
e 184 30
e 188 30
e 191 30
e 200 30
e 32 31
e 33 31
e 41 31
e 44 31
e 47 31
e 54 31
e 62 31
e 69 31
e 76 31
e 77 31
e 79 31
e 83 31
e 89 31
e 97 31
e 98 31
e 99 31
e 108 31
e 109 31
e 114 31
e 115 31
e 119 31
e 127 31
e 134 31
e 137 31
e 146 31
e 147 31
e 148 31
e 157 31
e 158 31
e 163 31
e 168 31
e 172 31
e 175 31
e 186 31
e 189 31
e 196 31
e 197 31
e 199 31
e 200 31
e 37 32
e 41 32
e 43 32
e 44 32
e 45 32
e 61 32
e 64 32
e 71 32
e 82 32
e 90 32
e 100 32
e 110 32
e 114 32
e 117 32
e 118 32
e 119 32
e 124 32
e 128 32
e 131 32
e 132 32
e 139 32
e 142 32
e 143 32
e 145 32
e 162 32
e 177 32
e 183 32
e 187 32
e 190 32
e 191 32
e 192 32
e 38 33
e 39 33
e 50 33
e 51 33
e 52 33
e 54 33
e 56 33
e 61 33
e 72 33
e 73 33
e 79 33
e 86 33
e 88 33
e 90 33
e 92 33
e 97 33
e 98 33
e 105 33
e 107 33
e 111 33
e 115 33
e 117 33
e 122 33
e 127 33
e 139 33
e 145 33
e 146 33
e 147 33
e 148 33
e 159 33
e 161 33
e 162 33
e 166 33
e 167 33
e 169 33
e 170 33
e 171 33
e 174 33
e 175 33
e 177 33
e 182 33
e 186 33
e 187 33
e 191 33
e 197 33
e 37 34
e 39 34
e 40 34
e 41 34
e 45 34
e 47 34
e 53 34
e 54 34
e 55 34
e 57 34
e 71 34
e 78 34
e 83 34
e 94 34
e 95 34
e 99 34
e 107 34
e 115 34
e 116 34
e 126 34
e 129 34
e 160 34
e 165 34
e 174 34
e 175 34
e 178 34
e 181 34
e 184 34
e 192 34
e 196 34
e 199 34
e 36 35
e 37 35
e 40 35
e 48 35
e 49 35
e 54 35
e 56 35
e 66 35
e 72 35
e 77 35
e 82 35
e 83 35
e 87 35
e 92 35
e 100 35
e 110 35
e 112 35
e 115 35
e 149 35
e 153 35
e 164 35
e 170 35
e 173 35
e 176 35
e 177 35
e 178 35
e 183 35
e 185 35
e 189 35
e 191 35
e 192 35
e 197 35
e 198 35
e 200 35
e 41 36
e 42 36
e 48 36
e 51 36
e 57 36
e 58 36
e 66 36
e 70 36
e 71 36
e 74 36
e 80 36
e 82 36
e 89 36
e 92 36
e 102 36
e 112 36
e 118 36
e 119 36
e 125 36
e 131 36
e 132 36
e 139 36
e 143 36
e 149 36
e 151 36
e 153 36
e 156 36
e 160 36
e 163 36
e 166 36
e 167 36
e 170 36
e 172 36
e 173 36
e 178 36
e 182 36
e 187 36
e 190 36
e 191 36
e 195 36
e 198 36
e 46 37
e 59 37
e 67 37
e 71 37
e 88 37
e 89 37
e 97 37
e 104 37
e 105 37
e 106 37
e 113 37
e 114 37
e 116 37
e 128 37
e 130 37
e 132 37
e 134 37
e 136 37
e 138 37
e 145 37
e 146 37
e 147 37
e 160 37
e 168 37
e 175 37
e 177 37
e 178 37
e 186 37
e 190 37
e 199 37
e 39 38
e 44 38
e 50 38
e 53 38
e 56 38
e 59 38
e 60 38
e 63 38
e 67 38
e 69 38
e 78 38
e 80 38
e 81 38
e 85 38
e 89 38
e 90 38
e 100 38
e 114 38
e 121 38
e 126 38
e 128 38
e 131 38
e 133 38
e 144 38
e 145 38
e 155 38
e 162 38
e 163 38
e 185 38
e 188 38
e 190 38
e 192 38
e 196 38
e 198 38
e 43 39
e 49 39
e 50 39
e 61 39
e 67 39
e 71 39
e 72 39
e 73 39
e 77 39
e 83 39
e 86 39
e 99 39
e 101 39
e 102 39
e 104 39
e 110 39
e 111 39
e 120 39
e 133 39
e 146 39
e 151 39
e 154 39
e 168 39
e 173 39
e 181 39
e 183 39
e 185 39
e 187 39
e 197 39
e 198 39
e 61 40
e 66 40
e 70 40
e 72 40
e 78 40
e 89 40
e 92 40
e 96 40
e 101 40
e 135 40
e 141 40
e 145 40
e 149 40
e 150 40
e 152 40
e 154 40
e 157 40
e 158 40
e 161 40
e 163 40
e 171 40
e 177 40
e 178 40
e 179 40
e 182 40
e 187 40
e 196 40
e 197 40
e 42 41
e 47 41
e 50 41
e 52 41
e 64 41
e 69 41
e 71 41
e 73 41
e 75 41
e 78 41
e 80 41
e 83 41
e 84 41
e 87 41
e 88 41
e 89 41
e 91 41
e 98 41
e 101 41
e 108 41
e 111 41
e 112 41
e 114 41
e 116 41
e 121 41
e 123 41
e 129 41
e 130 41
e 136 41
e 140 41
e 152 41
e 153 41
e 154 41
e 157 41
e 164 41
e 165 41
e 170 41
e 180 41
e 182 41
e 183 41
e 44 42
e 45 42
e 48 42
e 49 42
e 50 42
e 59 42
e 71 42
e 72 42
e 76 42
e 85 42
e 97 42
e 98 42
e 100 42
e 106 42
e 107 42
e 112 42
e 113 42
e 120 42
e 127 42
e 131 42
e 133 42
e 138 42
e 160 42
e 182 42
e 186 42
e 187 42
e 190 42
e 52 43
e 54 43
e 56 43
e 61 43
e 65 43
e 80 43
e 88 43
e 105 43
e 107 43
e 111 43
e 112 43
e 115 43
e 119 43
e 121 43
e 131 43
e 136 43
e 139 43
e 141 43
e 145 43
e 147 43
e 148 43
e 158 43
e 161 43
e 164 43
e 170 43
e 171 43
e 172 43
e 173 43
e 188 43
e 190 43
e 45 44
e 48 44
e 54 44
e 60 44
e 73 44
e 75 44
e 91 44
e 95 44
e 96 44
e 107 44
e 108 44
e 109 44
e 110 44
e 115 44
e 116 44
e 118 44
e 122 44
e 126 44
e 137 44
e 138 44
e 143 44
e 153 44
e 156 44
e 164 44
e 165 44
e 167 44
e 170 44
e 171 44
e 174 44
e 184 44
e 194 44
e 196 44
e 49 45
e 62 45
e 67 45
e 73 45
e 77 45
e 78 45
e 84 45
e 86 45
e 89 45
e 93 45
e 98 45
e 99 45
e 100 45
e 111 45
e 114 45
e 122 45
e 125 45
e 140 45
e 143 45
e 154 45
e 160 45
e 163 45
e 164 45
e 169 45
e 170 45
e 175 45
e 191 45
e 195 45
e 197 45
e 47 46
e 52 46
e 56 46
e 57 46
e 64 46
e 69 46
e 72 46
e 73 46
e 75 46
e 78 46
e 87 46
e 94 46
e 102 46
e 106 46
e 107 46
e 122 46
e 125 46
e 127 46
e 136 46
e 139 46
e 146 46
e 163 46
e 187 46
e 189 46
e 197 46
e 51 47
e 56 47
e 58 47
e 60 47
e 66 47
e 67 47
e 80 47
e 84 47
e 85 47
e 86 47
e 90 47
e 103 47
e 108 47
e 109 47
e 120 47
e 125 47
e 135 47
e 136 47
e 140 47
e 144 47
e 148 47
e 157 47
e 159 47
e 160 47
e 183 47
e 185 47
e 190 47
e 191 47
e 194 47
e 196 47
e 49 48
e 51 48
e 52 48
e 53 48
e 67 48
e 75 48
e 76 48
e 77 48
e 81 48
e 97 48
e 99 48
e 104 48
e 116 48
e 132 48
e 133 48
e 135 48
e 141 48
e 144 48
e 145 48
e 154 48
e 156 48
e 161 48
e 164 48
e 165 48
e 172 48
e 175 48
e 176 48
e 179 48
e 186 48
e 193 48
e 195 48
e 196 48
e 50 49
e 64 49
e 65 49
e 74 49
e 85 49
e 86 49
e 87 49
e 100 49
e 113 49
e 115 49
e 131 49
e 132 49
e 133 49
e 136 49
e 138 49
e 141 49
e 143 49
e 147 49
e 154 49
e 156 49
e 159 49
e 162 49
e 167 49
e 170 49
e 178 49
e 180 49
e 190 49
e 53 50
e 59 50
e 63 50
e 65 50
e 66 50
e 68 50
e 69 50
e 72 50
e 78 50
e 80 50
e 84 50
e 86 50
e 87 50
e 90 50
e 99 50
e 100 50
e 111 50
e 113 50
e 117 50
e 126 50
e 130 50
e 136 50
e 137 50
e 147 50
e 149 50
e 156 50
e 169 50
e 185 50
e 192 50
e 197 50
e 64 51
e 65 51
e 68 51
e 78 51
e 84 51
e 96 51
e 97 51
e 99 51
e 100 51
e 101 51
e 110 51
e 116 51
e 122 51
e 131 51
e 134 51
e 138 51
e 141 51
e 149 51
e 158 51
e 161 51
e 166 51
e 167 51
e 170 51
e 177 51
e 179 51
e 182 51
e 189 51
e 195 51
e 63 52
e 76 52
e 86 52
e 93 52
e 98 52
e 99 52
e 116 52
e 118 52
e 120 52
e 121 52
e 126 52
e 136 52
e 140 52
e 147 52
e 153 52
e 161 52
e 172 52
e 177 52
e 179 52
e 185 52
e 186 52
e 187 52
e 55 53
e 59 53
e 65 53
e 76 53
e 77 53
e 79 53
e 86 53
e 87 53
e 97 53
e 98 53
e 101 53
e 105 53
e 108 53
e 111 53
e 116 53
e 120 53
e 125 53
e 132 53
e 133 53
e 136 53
e 150 53
e 157 53
e 159 53
e 163 53
e 164 53
e 185 53
e 189 53
e 198 53
e 200 53
e 65 54
e 66 54
e 69 54
e 84 54
e 86 54
e 90 54
e 95 54
e 109 54
e 111 54
e 120 54
e 127 54
e 135 54
e 137 54
e 138 54
e 139 54
e 140 54
e 149 54
e 154 54
e 155 54
e 156 54
e 157 54
e 159 54
e 160 54
e 163 54
e 166 54
e 167 54
e 169 54
e 173 54
e 179 54
e 188 54
e 200 54
e 56 55
e 60 55
e 66 55
e 67 55
e 73 55
e 75 55
e 78 55
e 84 55
e 87 55
e 91 55
e 100 55
e 117 55
e 134 55
e 143 55
e 148 55
e 152 55
e 161 55
e 164 55
e 180 55
e 182 55
e 184 55
e 188 55
e 189 55
e 192 55
e 61 56
e 62 56
e 68 56
e 71 56
e 72 56
e 78 56
e 79 56
e 85 56
e 86 56
e 89 56
e 93 56
e 94 56
e 101 56
e 102 56
e 114 56
e 123 56
e 128 56
e 131 56
e 138 56
e 140 56
e 145 56
e 157 56
e 161 56
e 164 56
e 170 56
e 171 56
e 172 56
e 176 56
e 182 56
e 183 56
e 188 56
e 199 56
e 63 57
e 71 57
e 72 57
e 76 57
e 83 57
e 85 57
e 96 57
e 98 57
e 101 57
e 104 57
e 107 57
e 114 57
e 117 57
e 126 57
e 127 57
e 129 57
e 140 57
e 141 57
e 147 57
e 154 57
e 156 57
e 157 57
e 161 57
e 162 57
e 163 57
e 172 57
e 175 57
e 176 57
e 178 57
e 181 57
e 184 57
e 194 57
e 67 58
e 74 58
e 77 58
e 81 58
e 89 58
e 92 58
e 94 58
e 98 58
e 109 58
e 112 58
e 124 58
e 129 58
e 134 58
e 138 58
e 147 58
e 163 58
e 165 58
e 167 58
e 181 58
e 184 58
e 187 58
e 190 58
e 200 58
e 62 59
e 69 59
e 74 59
e 85 59
e 86 59
e 88 59
e 97 59
e 99 59
e 106 59
e 115 59
e 116 59
e 117 59
e 119 59
e 125 59
e 135 59
e 141 59
e 147 59
e 150 59
e 166 59
e 176 59
e 177 59
e 181 59
e 192 59
e 193 59
e 195 59
e 197 59
e 65 60
e 67 60
e 70 60
e 78 60
e 80 60
e 82 60
e 84 60
e 85 60
e 94 60
e 95 60
e 96 60
e 106 60
e 111 60
e 116 60
e 122 60
e 136 60
e 139 60
e 140 60
e 141 60
e 142 60
e 150 60
e 152 60
e 154 60
e 158 60
e 165 60
e 168 60
e 170 60
e 181 60
e 186 60
e 189 60
e 67 61
e 68 61
e 70 61
e 72 61
e 73 61
e 78 61
e 86 61
e 87 61
e 96 61
e 99 61
e 111 61
e 125 61
e 128 61
e 129 61
e 137 61
e 138 61
e 150 61
e 153 61
e 164 61
e 168 61
e 172 61
e 178 61
e 180 61
e 192 61
e 195 61
e 197 61
e 198 61
e 63 62
e 75 62
e 78 62
e 80 62
e 84 62
e 88 62
e 90 62
e 97 62
e 100 62
e 107 62
e 120 62
e 122 62
e 126 62
e 128 62
e 133 62
e 142 62
e 143 62
e 145 62
e 147 62
e 153 62
e 157 62
e 158 62
e 168 62
e 172 62
e 186 62
e 72 63
e 74 63
e 75 63
e 76 63
e 77 63
e 80 63
e 85 63
e 89 63
e 94 63
e 99 63
e 103 63
e 116 63
e 118 63
e 133 63
e 136 63
e 142 63
e 143 63
e 155 63
e 158 63
e 159 63
e 167 63
e 182 63
e 185 63
e 186 63
e 197 63
e 200 63
e 70 64
e 73 64
e 74 64
e 75 64
e 77 64
e 86 64
e 112 64
e 131 64
e 132 64
e 133 64
e 134 64
e 143 64
e 146 64
e 147 64
e 155 64
e 161 64
e 162 64
e 169 64
e 172 64
e 181 64
e 183 64
e 189 64
e 190 64
e 192 64
e 193 64
e 67 65
e 69 65
e 76 65
e 79 65
e 91 65
e 95 65
e 101 65
e 102 65
e 109 65
e 115 65
e 120 65
e 146 65
e 152 65
e 177 65
e 179 65
e 182 65
e 187 65
e 190 65
e 191 65
e 69 66
e 73 66
e 87 66
e 89 66
e 92 66
e 96 66
e 103 66
e 116 66
e 121 66
e 125 66
e 131 66
e 133 66
e 148 66
e 149 66
e 154 66
e 155 66
e 163 66
e 172 66
e 173 66
e 178 66
e 181 66
e 188 66
e 192 66
e 196 66
e 76 67
e 95 67
e 98 67
e 103 67
e 108 67
e 116 67
e 118 67
e 125 67
e 126 67
e 127 67
e 128 67
e 129 67
e 131 67
e 136 67
e 142 67
e 144 67
e 158 67
e 160 67
e 165 67
e 166 67
e 178 67
e 184 67
e 189 67
e 191 67
e 71 68
e 73 68
e 75 68
e 81 68
e 82 68
e 85 68
e 86 68
e 88 68
e 102 68
e 105 68
e 106 68
e 108 68
e 110 68
e 117 68
e 119 68
e 131 68
e 135 68
e 141 68
e 142 68
e 153 68
e 161 68
e 163 68
e 166 68
e 169 68
e 175 68
e 182 68
e 188 68
e 198 68
e 199 68
e 76 69
e 83 69
e 85 69
e 90 69
e 95 69
e 97 69
e 100 69
e 101 69
e 106 69
e 114 69
e 115 69
e 125 69
e 126 69
e 130 69
e 136 69
e 144 69
e 147 69
e 148 69
e 156 69
e 158 69
e 161 69
e 165 69
e 172 69
e 173 69
e 183 69
e 189 69
e 192 69
e 193 69
e 195 69
e 200 69
e 76 70
e 78 70
e 82 70
e 83 70
e 95 70
e 97 70
e 98 70
e 99 70
e 100 70
e 101 70
e 102 70
e 103 70
e 114 70
e 123 70
e 139 70
e 140 70
e 145 70
e 146 70
e 148 70
e 153 70
e 158 70
e 175 70
e 177 70
e 181 70
e 185 70
e 186 70
e 187 70
e 192 70
e 199 70
e 76 71
e 82 71
e 84 71
e 85 71
e 86 71
e 93 71
e 94 71
e 98 71
e 99 71
e 101 71
e 105 71
e 109 71
e 111 71
e 122 71
e 140 71
e 148 71
e 149 71
e 150 71
e 151 71
e 154 71
e 157 71
e 158 71
e 160 71
e 161 71
e 172 71
e 174 71
e 178 71
e 187 71
e 195 71
e 196 71
e 197 71
e 198 71
e 74 72
e 75 72
e 81 72
e 82 72
e 90 72
e 91 72
e 94 72
e 95 72
e 98 72
e 112 72
e 115 72
e 117 72
e 118 72
e 123 72
e 131 72
e 137 72
e 145 72
e 147 72
e 151 72
e 157 72
e 161 72
e 167 72
e 168 72
e 169 72
e 173 72
e 178 72
e 188 72
e 193 72
e 195 72
e 76 73
e 83 73
e 84 73
e 88 73
e 93 73
e 94 73
e 98 73
e 99 73
e 100 73
e 106 73
e 111 73
e 112 73
e 113 73
e 118 73
e 119 73
e 123 73
e 128 73
e 148 73
e 164 73
e 166 73
e 168 73
e 173 73
e 181 73
e 184 73
e 188 73
e 191 73
e 192 73
e 76 74
e 88 74
e 112 74
e 117 74
e 126 74
e 131 74
e 133 74
e 142 74
e 144 74
e 148 74
e 150 74
e 151 74
e 157 74
e 159 74
e 167 74
e 168 74
e 169 74
e 170 74
e 175 74
e 186 74
e 187 74
e 189 74
e 192 74
e 197 74
e 200 74
e 82 75
e 86 75
e 90 75
e 100 75
e 101 75
e 103 75
e 106 75
e 108 75
e 111 75
e 112 75
e 119 75
e 120 75
e 122 75
e 125 75
e 139 75
e 140 75
e 141 75
e 153 75
e 156 75
e 163 75
e 165 75
e 169 75
e 170 75
e 181 75
e 184 75
e 198 75
e 199 75
e 77 76
e 80 76
e 87 76
e 93 76
e 95 76
e 96 76
e 109 76
e 122 76
e 129 76
e 131 76
e 140 76
e 142 76
e 155 76
e 159 76
e 161 76
e 166 76
e 170 76
e 173 76
e 174 76
e 185 76
e 187 76
e 197 76
e 85 77
e 87 77
e 89 77
e 93 77
e 98 77
e 100 77
e 101 77
e 118 77
e 121 77
e 124 77
e 126 77
e 127 77
e 128 77
e 140 77
e 142 77
e 149 77
e 152 77
e 165 77
e 171 77
e 173 77
e 178 77
e 179 77
e 183 77
e 196 77
e 197 77
e 80 78
e 83 78
e 86 78
e 87 78
e 89 78
e 91 78
e 104 78
e 111 78
e 114 78
e 115 78
e 116 78
e 118 78
e 119 78
e 123 78
e 132 78
e 133 78
e 141 78
e 150 78
e 158 78
e 166 78
e 174 78
e 184 78
e 192 78
e 196 78
e 198 78
e 85 79
e 89 79
e 91 79
e 92 79
e 93 79
e 110 79
e 112 79
e 115 79
e 123 79
e 125 79
e 126 79
e 127 79
e 131 79
e 143 79
e 145 79
e 147 79
e 162 79
e 170 79
e 179 79
e 180 79
e 181 79
e 187 79
e 193 79
e 197 79
e 200 79
e 83 80
e 84 80
e 85 80
e 86 80
e 90 80
e 94 80
e 95 80
e 97 80
e 98 80
e 110 80
e 111 80
e 128 80
e 131 80
e 133 80
e 148 80
e 155 80
e 159 80
e 166 80
e 182 80
e 191 80
e 196 80
e 197 80
e 85 81
e 90 81
e 92 81
e 98 81
e 102 81
e 108 81
e 117 81
e 120 81
e 125 81
e 127 81
e 142 81
e 146 81
e 151 81
e 162 81
e 170 81
e 176 81
e 179 81
e 181 81
e 182 81
e 195 81
e 198 81
e 199 81
e 84 82
e 85 82
e 88 82
e 92 82
e 98 82
e 106 82
e 107 82
e 112 82
e 113 82
e 125 82
e 129 82
e 135 82
e 138 82
e 144 82
e 145 82
e 146 82
e 148 82
e 152 82
e 162 82
e 163 82
e 166 82
e 172 82
e 174 82
e 180 82
e 185 82
e 189 82
e 191 82
e 193 82
e 198 82
e 93 83
e 99 83
e 101 83
e 103 83
e 107 83
e 108 83
e 117 83
e 118 83
e 128 83
e 139 83
e 140 83
e 147 83
e 151 83
e 154 83
e 162 83
e 166 83
e 175 83
e 184 83
e 186 83
e 190 83
e 192 83
e 199 83
e 91 84
e 99 84
e 112 84
e 119 84
e 121 84
e 128 84
e 132 84
e 148 84
e 149 84
e 150 84
e 154 84
e 155 84
e 156 84
e 158 84
e 159 84
e 171 84
e 173 84
e 175 84
e 199 84
e 88 85
e 91 85
e 93 85
e 95 85
e 97 85
e 103 85
e 110 85
e 112 85
e 114 85
e 120 85
e 126 85
e 131 85
e 133 85
e 136 85
e 139 85
e 140 85
e 141 85
e 143 85
e 145 85
e 149 85
e 150 85
e 157 85
e 159 85
e 161 85
e 164 85
e 167 85
e 182 85
e 185 85
e 188 85
e 198 85
e 90 86
e 92 86
e 94 86
e 99 86
e 102 86
e 110 86
e 111 86
e 117 86
e 121 86
e 124 86
e 129 86
e 131 86
e 133 86
e 153 86
e 170 86
e 180 86
e 182 86
e 185 86
e 199 86
e 89 87
e 90 87
e 97 87
e 99 87
e 122 87
e 126 87
e 130 87
e 136 87
e 143 87
e 154 87
e 168 87
e 170 87
e 183 87
e 185 87
e 190 87
e 196 87
e 197 87
e 200 87
e 89 88
e 94 88
e 137 88
e 141 88
e 147 88
e 151 88
e 157 88
e 180 88
e 185 88
e 189 88
e 192 88
e 195 88
e 196 88
e 197 88
e 109 89
e 111 89
e 116 89
e 117 89
e 121 89
e 125 89
e 129 89
e 131 89
e 133 89
e 134 89
e 140 89
e 141 89
e 142 89
e 145 89
e 146 89
e 147 89
e 148 89
e 152 89
e 153 89
e 162 89
e 163 89
e 169 89
e 195 89
e 196 89
e 96 90
e 99 90
e 109 90
e 113 90
e 119 90
e 123 90
e 126 90
e 127 90
e 129 90
e 140 90
e 143 90
e 153 90
e 157 90
e 158 90
e 166 90
e 168 90
e 170 90
e 172 90
e 177 90
e 184 90
e 190 90
e 193 90
e 194 90
e 197 90
e 107 91
e 108 91
e 109 91
e 110 91
e 111 91
e 135 91
e 136 91
e 146 91
e 160 91
e 162 91
e 165 91
e 166 91
e 170 91
e 175 91
e 177 91
e 179 91
e 181 91
e 182 91
e 186 91
e 192 91
e 94 92
e 99 92
e 113 92
e 114 92
e 117 92
e 120 92
e 125 92
e 128 92
e 131 92
e 132 92
e 137 92
e 153 92
e 155 92
e 158 92
e 160 92
e 162 92
e 165 92
e 168 92
e 173 92
e 174 92
e 181 92
e 186 92
e 191 92
e 194 92
e 196 92
e 197 92
e 95 93
e 96 93
e 102 93
e 108 93
e 110 93
e 112 93
e 116 93
e 128 93
e 129 93
e 131 93
e 153 93
e 158 93
e 176 93
e 182 93
e 187 93
e 197 93
e 200 93
e 102 94
e 108 94
e 116 94
e 120 94
e 134 94
e 135 94
e 136 94
e 139 94
e 140 94
e 145 94
e 146 94
e 148 94
e 153 94
e 158 94
e 169 94
e 171 94
e 172 94
e 177 94
e 179 94
e 180 94
e 181 94
e 187 94
e 188 94
e 191 94
e 98 95
e 111 95
e 118 95
e 142 95
e 151 95
e 155 95
e 157 95
e 158 95
e 162 95
e 165 95
e 168 95
e 183 95
e 99 96
e 102 96
e 111 96
e 120 96
e 133 96
e 134 96
e 138 96
e 139 96
e 140 96
e 155 96
e 160 96
e 161 96
e 166 96
e 172 96
e 174 96
e 176 96
e 183 96
e 184 96
e 193 96
e 194 96
e 98 97
e 104 97
e 115 97
e 116 97
e 126 97
e 140 97
e 141 97
e 144 97
e 155 97
e 159 97
e 164 97
e 165 97
e 169 97
e 171 97
e 178 97
e 179 97
e 190 97
e 195 97
e 199 97
e 101 98
e 108 98
e 109 98
e 114 98
e 116 98
e 119 98
e 133 98
e 135 98
e 142 98
e 145 98
e 147 98
e 148 98
e 149 98
e 159 98
e 160 98
e 161 98
e 174 98
e 176 98
e 181 98
e 200 98
e 101 99
e 108 99
e 112 99
e 125 99
e 130 99
e 133 99
e 135 99
e 140 99
e 141 99
e 148 99
e 155 99
e 157 99
e 158 99
e 161 99
e 169 99
e 175 99
e 176 99
e 190 99
e 192 99
e 194 99
e 196 99
e 102 100
e 108 100
e 110 100
e 112 100
e 123 100
e 128 100
e 129 100
e 139 100
e 141 100
e 143 100
e 145 100
e 146 100
e 150 100
e 161 100
e 163 100
e 173 100
e 175 100
e 182 100
e 185 100
e 191 100
e 107 101
e 114 101
e 123 101
e 127 101
e 129 101
e 133 101
e 136 101
e 137 101
e 142 101
e 143 101
e 147 101
e 148 101
e 151 101
e 153 101
e 157 101
e 168 101
e 180 101
e 191 101
e 192 101
e 197 101
e 103 102
e 110 102
e 111 102
e 112 102
e 114 102
e 120 102
e 130 102
e 154 102
e 158 102
e 163 102
e 165 102
e 171 102
e 178 102
e 179 102
e 183 102
e 186 102
e 193 102
e 194 102
e 195 102
e 196 102
e 197 102
e 198 102
e 111 103
e 120 103
e 131 103
e 137 103
e 138 103
e 139 103
e 142 103
e 144 103
e 146 103
e 163 103
e 169 103
e 174 103
e 185 103
e 188 103
e 192 103
e 117 104
e 119 104
e 121 104
e 129 104
e 138 104
e 158 104
e 161 104
e 169 104
e 171 104
e 181 104
e 197 104
e 115 105
e 117 105
e 118 105
e 120 105
e 123 105
e 131 105
e 132 105
e 136 105
e 140 105
e 141 105
e 150 105
e 151 105
e 157 105
e 171 105
e 176 105
e 177 105
e 179 105
e 190 105
e 192 105
e 195 105
e 110 106
e 111 106
e 114 106
e 119 106
e 122 106
e 127 106
e 129 106
e 135 106
e 136 106
e 138 106
e 139 106
e 140 106
e 157 106
e 164 106
e 168 106
e 175 106
e 179 106
e 183 106
e 184 106
e 118 107
e 120 107
e 126 107
e 128 107
e 133 107
e 137 107
e 140 107
e 144 107
e 154 107
e 157 107
e 160 107
e 163 107
e 167 107
e 175 107
e 181 107
e 185 107
e 188 107
e 192 107
e 200 107
e 110 108
e 111 108
e 112 108
e 128 108
e 129 108
e 133 108
e 145 108
e 150 108
e 157 108
e 159 108
e 164 108
e 165 108
e 172 108
e 173 108
e 174 108
e 184 108
e 188 108
e 192 108
e 111 109
e 112 109
e 114 109
e 115 109
e 121 109
e 122 109
e 125 109
e 129 109
e 130 109
e 133 109
e 142 109
e 153 109
e 155 109
e 172 109
e 177 109
e 182 109
e 185 109
e 188 109
e 197 109
e 199 109
e 113 110
e 115 110
e 120 110
e 124 110
e 125 110
e 129 110
e 137 110
e 143 110
e 148 110
e 152 110
e 154 110
e 159 110
e 165 110
e 166 110
e 167 110
e 174 110
e 176 110
e 180 110
e 182 110
e 188 110
e 199 110
e 200 110
e 112 111
e 113 111
e 119 111
e 126 111
e 127 111
e 128 111
e 129 111
e 138 111
e 150 111
e 152 111
e 167 111
e 190 111
e 116 112
e 121 112
e 125 112
e 141 112
e 143 112
e 145 112
e 147 112
e 159 112
e 163 112
e 165 112
e 169 112
e 171 112
e 174 112
e 176 112
e 183 112
e 194 112
e 116 113
e 123 113
e 132 113
e 134 113
e 135 113
e 149 113
e 152 113
e 153 113
e 156 113
e 167 113
e 172 113
e 183 113
e 189 113
e 190 113
e 193 113
e 200 113
e 119 114
e 126 114
e 137 114
e 138 114
e 141 114
e 144 114
e 151 114
e 155 114
e 157 114
e 160 114
e 166 114
e 171 114
e 174 114
e 176 114
e 177 114
e 180 114
e 182 114
e 184 114
e 185 114
e 187 114
e 190 114
e 192 114
e 193 114
e 200 114
e 119 115
e 128 115
e 130 115
e 133 115
e 138 115
e 145 115
e 151 115
e 155 115
e 163 115
e 164 115
e 166 115
e 170 115
e 171 115
e 172 115
e 180 115
e 196 115
e 117 116
e 118 116
e 119 116
e 125 116
e 131 116
e 157 116
e 158 116
e 162 116
e 163 116
e 170 116
e 172 116
e 183 116
e 193 116
e 196 116
e 198 116
e 126 117
e 131 117
e 144 117
e 148 117
e 152 117
e 158 117
e 162 117
e 174 117
e 189 117
e 190 117
e 191 117
e 192 117
e 195 117
e 198 117
e 200 117
e 119 118
e 120 118
e 123 118
e 127 118
e 135 118
e 136 118
e 137 118
e 139 118
e 143 118
e 148 118
e 149 118
e 150 118
e 156 118
e 157 118
e 160 118
e 163 118
e 167 118
e 173 118
e 185 118
e 187 118
e 188 118
e 197 118
e 120 119
e 132 119
e 134 119
e 137 119
e 139 119
e 155 119
e 164 119
e 171 119
e 172 119
e 177 119
e 181 119
e 197 119
e 198 119
e 121 120
e 130 120
e 135 120
e 141 120
e 144 120
e 146 120
e 149 120
e 157 120
e 160 120
e 165 120
e 177 120
e 181 120
e 182 120
e 188 120
e 191 120
e 193 120
e 199 120
e 130 121
e 148 121
e 156 121
e 162 121
e 168 121
e 175 121
e 176 121
e 178 121
e 185 121
e 186 121
e 134 122
e 142 122
e 146 122
e 148 122
e 152 122
e 159 122
e 163 122
e 165 122
e 170 122
e 171 122
e 179 122
e 182 122
e 190 122
e 200 122
e 131 123
e 135 123
e 147 123
e 152 123
e 155 123
e 165 123
e 170 123
e 173 123
e 174 123
e 175 123
e 178 123
e 181 123
e 182 123
e 183 123
e 184 123
e 192 123
e 198 123
e 131 124
e 133 124
e 144 124
e 145 124
e 151 124
e 158 124
e 161 124
e 163 124
e 182 124
e 183 124
e 192 124
e 132 125
e 133 125
e 137 125
e 139 125
e 150 125
e 157 125
e 165 125
e 166 125
e 169 125
e 175 125
e 178 125
e 183 125
e 185 125
e 186 125
e 193 125
e 194 125
e 195 125
e 140 126
e 147 126
e 153 126
e 155 126
e 165 126
e 167 126
e 168 126
e 176 126
e 188 126
e 193 126
e 194 126
e 129 127
e 132 127
e 139 127
e 141 127
e 142 127
e 143 127
e 144 127
e 147 127
e 161 127
e 167 127
e 178 127
e 179 127
e 182 127
e 184 127
e 188 127
e 192 127
e 194 127
e 199 127
e 129 128
e 131 128
e 132 128
e 137 128
e 141 128
e 146 128
e 148 128
e 158 128
e 160 128
e 163 128
e 165 128
e 180 128
e 182 128
e 184 128
e 192 128
e 199 128
e 200 128
e 140 129
e 144 129
e 156 129
e 157 129
e 158 129
e 160 129
e 163 129
e 167 129
e 170 129
e 177 129
e 183 129
e 187 129
e 189 129
e 199 129
e 136 130
e 137 130
e 147 130
e 151 130
e 156 130
e 157 130
e 164 130
e 169 130
e 181 130
e 193 130
e 194 130
e 197 130
e 136 131
e 144 131
e 145 131
e 148 131
e 149 131
e 151 131
e 152 131
e 156 131
e 164 131
e 165 131
e 168 131
e 175 131
e 177 131
e 191 131
e 194 131
e 195 131
e 197 131
e 133 132
e 142 132
e 147 132
e 149 132
e 155 132
e 159 132
e 161 132
e 166 132
e 169 132
e 173 132
e 182 132
e 187 132
e 191 132
e 200 132
e 136 133
e 139 133
e 142 133
e 147 133
e 148 133
e 150 133
e 151 133
e 153 133
e 159 133
e 161 133
e 168 133
e 173 133
e 177 133
e 185 133
e 191 133
e 194 133
e 199 133
e 140 134
e 145 134
e 146 134
e 147 134
e 149 134
e 155 134
e 156 134
e 160 134
e 163 134
e 171 134
e 173 134
e 176 134
e 177 134
e 180 134
e 187 134
e 195 134
e 137 135
e 139 135
e 146 135
e 152 135
e 158 135
e 164 135
e 174 135
e 176 135
e 177 135
e 186 135
e 187 135
e 190 135
e 193 135
e 195 135
e 196 135
e 198 135
e 137 136
e 139 136
e 145 136
e 154 136
e 155 136
e 159 136
e 166 136
e 176 136
e 179 136
e 181 136
e 185 136
e 187 136
e 196 136
e 199 136
e 138 137
e 146 137
e 149 137
e 151 137
e 158 137
e 164 137
e 166 137
e 170 137
e 172 137
e 174 137
e 176 137
e 177 137
e 179 137
e 180 137
e 184 137
e 185 137
e 188 137
e 196 137
e 144 138
e 155 138
e 177 138
e 183 138
e 184 138
e 186 138
e 198 138
e 199 138
e 150 139
e 156 139
e 162 139
e 165 139
e 171 139
e 180 139
e 181 139
e 182 139
e 183 139
e 187 139
e 190 139
e 191 139
e 192 139
e 195 139
e 196 139
e 197 139
e 200 139
e 144 140
e 150 140
e 158 140
e 161 140
e 162 140
e 164 140
e 168 140
e 169 140
e 174 140
e 177 140
e 196 140
e 198 140
e 199 140
e 147 141
e 149 141
e 150 141
e 152 141
e 156 141
e 158 141
e 160 141
e 161 141
e 165 141
e 169 141
e 171 141
e 182 141
e 184 141
e 187 141
e 195 141
e 196 141
e 199 141
e 200 141
e 143 142
e 144 142
e 154 142
e 157 142
e 158 142
e 166 142
e 167 142
e 170 142
e 171 142
e 183 142
e 186 142
e 191 142
e 193 142
e 195 142
e 198 142
e 199 142
e 145 143
e 146 143
e 152 143
e 156 143
e 157 143
e 163 143
e 165 143
e 170 143
e 173 143
e 175 143
e 199 143
e 146 144
e 147 144
e 152 144
e 156 144
e 162 144
e 170 144
e 181 144
e 183 144
e 185 144
e 188 144
e 148 145
e 157 145
e 165 145
e 171 145
e 173 145
e 176 145
e 180 145
e 182 145
e 184 145
e 188 145
e 196 145
e 158 146
e 164 146
e 168 146
e 174 146
e 175 146
e 178 146
e 180 146
e 184 146
e 189 146
e 193 146
e 148 147
e 150 147
e 162 147
e 168 147
e 175 147
e 176 147
e 177 147
e 181 147
e 185 147
e 194 147
e 195 147
e 197 147
e 198 147
e 199 147
e 200 147
e 150 148
e 157 148
e 163 148
e 171 148
e 182 148
e 186 148
e 190 148
e 192 148
e 193 148
e 196 148
e 198 148
e 151 149
e 152 149
e 162 149
e 164 149
e 169 149
e 173 149
e 177 149
e 183 149
e 185 149
e 186 149
e 191 149
e 200 149
e 152 150
e 167 150
e 175 150
e 186 150
e 189 150
e 191 150
e 192 150
e 196 150
e 197 150
e 198 150
e 152 151
e 159 151
e 160 151
e 171 151
e 173 151
e 175 151
e 177 151
e 182 151
e 185 151
e 188 151
e 191 151
e 192 151
e 196 151
e 157 152
e 165 152
e 166 152
e 169 152
e 172 152
e 176 152
e 179 152
e 182 152
e 183 152
e 191 152
e 200 152
e 163 153
e 171 153
e 180 153
e 184 153
e 185 153
e 186 153
e 189 153
e 190 153
e 194 153
e 196 153
e 158 154
e 162 154
e 165 154
e 167 154
e 169 154
e 175 154
e 184 154
e 188 154
e 192 154
e 194 154
e 196 154
e 197 154
e 158 155
e 161 155
e 166 155
e 179 155
e 185 155
e 186 155
e 187 155
e 191 155
e 195 155
e 162 156
e 169 156
e 170 156
e 173 156
e 182 156
e 189 156
e 192 156
e 170 157
e 171 157
e 172 157
e 173 157
e 183 157
e 184 157
e 194 157
e 160 158
e 168 158
e 169 158
e 178 158
e 180 158
e 186 158
e 172 159
e 175 159
e 182 159
e 187 159
e 191 159
e 194 159
e 198 159
e 200 159
e 172 160
e 176 160
e 177 160
e 190 160
e 191 160
e 193 160
e 163 161
e 164 161
e 165 161
e 182 161
e 187 161
e 200 161
e 164 162
e 166 162
e 172 162
e 173 162
e 176 162
e 180 162
e 186 162
e 197 162
e 199 162
e 166 163
e 175 163
e 192 163
e 193 163
e 195 163
e 196 163
e 174 164
e 175 164
e 193 164
e 167 165
e 173 165
e 176 165
e 179 165
e 184 165
e 187 165
e 188 165
e 193 165
e 194 165
e 195 165
e 173 166
e 176 166
e 179 166
e 188 166
e 191 166
e 195 166
e 199 166
e 171 167
e 177 167
e 178 167
e 182 167
e 183 167
e 191 167
e 195 167
e 170 168
e 172 168
e 179 168
e 189 168
e 192 168
e 195 168
e 173 169
e 177 169
e 181 169
e 191 169
e 193 169
e 195 169
e 198 169
e 172 170
e 184 170
e 191 170
e 172 171
e 175 171
e 176 171
e 177 171
e 180 171
e 186 171
e 189 171
e 186 172
e 190 172
e 175 173
e 176 173
e 177 173
e 183 173
e 187 173
e 190 173
e 195 173
e 198 173
e 182 174
e 189 174
e 190 174
e 192 174
e 196 174
e 199 174
e 181 175
e 188 175
e 189 175
e 184 176
e 188 176
e 190 176
e 192 176
e 195 176
e 179 177
e 180 177
e 187 177
e 189 177
e 192 177
e 198 177
e 199 177
e 185 178
e 186 178
e 180 179
e 187 179
e 191 179
e 193 179
e 194 179
e 196 179
e 198 179
e 187 180
e 189 180
e 193 180
e 198 180
e 200 180
e 183 181
e 191 181
e 200 181
e 186 182
e 191 182
e 193 182
e 194 182
e 185 183
e 186 183
e 188 183
e 200 183
e 191 184
e 200 184
e 187 185
e 188 185
e 189 185
e 190 185
e 192 185
e 200 186
e 191 187
e 197 187
e 199 187
e 193 188
e 200 188
e 190 189
e 196 190
e 197 190
e 193 191
e 195 191
e 196 191
e 197 192
e 194 193
e 195 194
e 199 194
e 199 196
